Read MPS format model from file dat/rmp/DER_96_16384_10.mps
Reading time = 1.17 seconds
: 16480 rows, 37152 columns, 3207010 nonzeros
Gurobi Optimizer version 9.0.0 build v9.0.0rc2 (linux64)
Optimize a model with 16480 rows, 37152 columns and 3207010 nonzeros
Model fingerprint: 0xf4e70f6b
Coefficient statistics:
  Matrix range     [1e-04, 1e+01]
  Objective range  [8e-01, 1e+03]
  Bounds range     [1e+05, 1e+05]
  RHS range        [1e+00, 1e+00]
Ordering time: 0.04s

Barrier statistics:
 AA' NZ     : 1.457e+06
 Factor NZ  : 1.633e+06 (roughly 35 MBytes of memory)
 Factor Ops : 1.696e+08 (less than 1 second per iteration)
 Threads    : 1

                  Objective                Residual
Iter       Primal          Dual         Primal    Dual     Compl     Time
   0   7.47709773e+09 -6.74672060e+08  6.54e+07 3.30e-02  2.65e+06     1s
   1   1.42668787e+08 -1.20504154e+08  1.08e+06 3.64e-12  4.70e+04     1s
   2   1.33374165e+07 -4.04274937e+07  9.68e+04 1.82e-12  5.08e+03     1s
   3   9.17341498e+05 -1.49689623e+07  5.61e+03 3.64e-12  6.10e+02     2s
   4   1.25810873e+05 -7.48040245e+06  5.57e+01 1.82e-12  2.05e+02     2s
   5   1.16421652e+05  3.49801472e+04  1.49e-09 3.64e-12  2.19e+00     2s
   6   1.15725419e+05  9.92173633e+04  6.74e-10 3.64e-12  4.43e-01     2s
   7   1.15028671e+05  1.12422803e+05  7.00e-10 5.46e-12  7.00e-02     3s
   8   1.14364889e+05  1.13248911e+05  9.20e-10 1.82e-12  3.00e-02     3s
   9   1.14125680e+05  1.13622849e+05  2.91e-09 1.82e-12  1.35e-02     3s
  10   1.14050344e+05  1.13791305e+05  1.80e-09 1.82e-12  6.95e-03     4s
  11   1.14006265e+05  1.13858644e+05  2.32e-09 1.82e-12  3.96e-03     4s
  12   1.13972565e+05  1.13871701e+05  6.77e-09 1.82e-12  2.71e-03     4s
  13   1.13946145e+05  1.13884705e+05  7.82e-09 1.82e-12  1.65e-03     4s
  14   1.13928669e+05  1.13894707e+05  1.92e-08 1.82e-12  9.12e-04     5s
  15   1.13921862e+05  1.13900795e+05  1.21e-08 1.82e-12  5.66e-04     5s
  16   1.13919893e+05  1.13902096e+05  1.33e-08 1.82e-12  4.78e-04     5s
  17   1.13917217e+05  1.13902999e+05  1.14e-08 1.82e-12  3.82e-04     6s
  18   1.13914178e+05  1.13904223e+05  2.34e-08 1.82e-12  2.67e-04     6s
  19   1.13912968e+05  1.13904769e+05  2.03e-08 3.64e-12  2.20e-04     6s
  20   1.13911859e+05  1.13905209e+05  1.76e-08 3.64e-12  1.79e-04     6s
  21   1.13910185e+05  1.13905651e+05  2.24e-08 1.82e-12  1.22e-04     7s
  22   1.13909451e+05  1.13905904e+05  2.01e-08 1.82e-12  9.52e-05     7s
  23   1.13909142e+05  1.13906065e+05  2.25e-08 1.82e-12  8.26e-05     7s
  24   1.13908493e+05  1.13906169e+05  2.30e-08 1.82e-12  6.24e-05     7s
  25   1.13907885e+05  1.13906256e+05  3.40e-08 1.82e-12  4.37e-05     8s
  26   1.13907299e+05  1.13906347e+05  1.71e-07 3.64e-12  2.56e-05     8s
  27   1.13906970e+05  1.13906368e+05  1.26e-07 1.82e-12  1.62e-05     8s
  28   1.13906792e+05  1.13906404e+05  1.14e-07 3.64e-12  1.04e-05     9s
  29   1.13906663e+05  1.13906421e+05  9.58e-08 1.82e-12  6.50e-06     9s
  30   1.13906568e+05  1.13906429e+05  9.51e-08 1.82e-12  3.72e-06     9s
  31   1.13906528e+05  1.13906441e+05  1.18e-07 9.09e-13  2.34e-06     9s
  32   1.13906453e+05  1.13906445e+05  1.75e-07 3.64e-12  2.40e-07    10s
  33   1.13906447e+05  1.13906445e+05  9.32e-05 3.64e-12  5.47e-08    10s
  34   1.13906445e+05  1.13906445e+05  7.96e-05 2.73e-12  7.01e-09    10s
  35   1.13906445e+05  1.13906445e+05  3.32e-05 2.73e-12  3.33e-10    11s
  36   1.13906445e+05  1.13906445e+05  1.62e-05 3.64e-12  7.60e-13    11s
  37   1.13906445e+05  1.13906445e+05  7.18e-07 3.64e-12  7.60e-16    11s

Barrier solved model in 37 iterations and 11.01 seconds
Optimal objective 1.13906445e+05

Solve time: 11.012679958
Barrier iterations: 37
